c WARNING: for repeatability, setting FPU to use double precision
d VARIABLES            66930        
d CONSTRAINTS          236372       
c ============================[ Problem Statistics ]=============================
c |                                                                             |
c |  Number of variables:         66930                                         |
c |  Number of clauses:          236372                                         |
c |  Parse time:                   0.04 s                                       |
c |                                                                             |
c ============================[ Search Statistics ]==============================
c | Conflicts |          ORIGINAL         |          LEARNT          | Progress |
c |           |    Vars  Clauses Literals |    Limit  Clauses Lit/Cl |          |
c ===============================================================================
c |       100 |   49271   191526   482539 |    70226       99      9 | 26.384 % |
c |       250 |   49271   191524   482534 |    77248      249      8 | 26.384 % |
c |       475 |   49271   191524   482534 |    84973      474     13 | 26.384 % |
c |       812 |   49271   191524   482534 |    93471      811     14 | 26.384 % |
c |      1318 |   49271   191524   482534 |   102818     1317     17 | 26.384 % |
c |      2077 |   49270   191515   482513 |   113099     2075     17 | 26.386 % |
c |      3216 |   49269   191505   482490 |   124409     3213     20 | 26.387 % |
c |      4924 |   49267   191486   482446 |   136850     4917     23 | 26.390 % |
c |      7486 |   49264   191456   482376 |   150536     7473     27 | 26.395 % |
c |     11330 |   49260   191415   482280 |   165589    11305     29 | 26.401 % |
c ===============================================================================
c restarts              : 62
c conflicts             : 15152          (9737 /sec)
c decisions             : 71146          (0.00 % random) (45721 /sec)
c propagations          : 13279665       (8533957 /sec)
c conflict literals     : 456576         (34.23 % deleted)
d RESTARTS             62
d FAILURES             15152        
d NODES                71146        
d BACKTRACKS           71146        
d PROPAGATIONS         13279665     
d NOGOODSIZE           30.13 
d MEMORY               23.00 
d TIME                 1.5561 

s UNSATISFIABLE
